p cnf 360 2880
1 -109 0
1 -110 0
109 -109 0
110 -110 0
19 -121 0
19 -122 0
121 -121 0
122 -122 0
37 -133 0
37 -134 0
133 -133 0
134 -134 0
55 -145 0
55 -146 0
145 -145 0
146 -146 0
73 -157 0
73 -158 0
157 -157 0
158 -158 0
91 -169 0
91 -170 0
169 -169 0
170 -170 0
2 -109 0
2 -110 0
109 -109 0
110 -110 0
20 -121 0
20 -122 0
121 -121 0
122 -122 0
38 -133 0
38 -134 0
133 -133 0
134 -134 0
56 -145 0
56 -146 0
145 -145 0
146 -146 0
74 -157 0
74 -158 0
157 -157 0
158 -158 0
92 -169 0
92 -170 0
169 -169 0
170 -170 0
3 -181 -109 0
-3 181 -109 0
3 181 -110 0
-3 -181 -110 0
21 -181 -121 0
-21 181 -121 0
21 181 -122 0
-21 -181 -122 0
39 -181 -133 0
-39 181 -133 0
39 181 -134 0
-39 -181 -134 0
57 -181 -145 0
-57 181 -145 0
57 181 -146 0
-57 -181 -146 0
75 -181 -157 0
-75 181 -157 0
75 181 -158 0
-75 -181 -158 0
93 -181 -169 0
-93 181 -169 0
93 181 -170 0
-93 -181 -170 0
-4 -109 0
-4 -110 0
109 -109 0
110 -110 0
-22 -121 0
-22 -122 0
121 -121 0
122 -122 0
-40 -133 0
-40 -134 0
133 -133 0
134 -134 0
-58 -145 0
-58 -146 0
145 -145 0
146 -146 0
-76 -157 0
-76 -158 0
157 -157 0
158 -158 0
-94 -169 0
-94 -170 0
169 -169 0
170 -170 0
5 -182 -109 0
-5 182 -109 0
5 182 -110 0
-5 -182 -110 0
23 -182 -121 0
-23 182 -121 0
23 182 -122 0
-23 -182 -122 0
41 -182 -133 0
-41 182 -133 0
41 182 -134 0
-41 -182 -134 0
59 -182 -145 0
-59 182 -145 0
59 182 -146 0
-59 -182 -146 0
77 -182 -157 0
-77 182 -157 0
77 182 -158 0
-77 -182 -158 0
95 -182 -169 0
-95 182 -169 0
95 182 -170 0
-95 -182 -170 0
6 -109 0
6 -110 0
109 -109 0
110 -110 0
24 -121 0
24 -122 0
121 -121 0
122 -122 0
42 -133 0
42 -134 0
133 -133 0
134 -134 0
60 -145 0
60 -146 0
145 -145 0
146 -146 0
78 -157 0
78 -158 0
157 -157 0
158 -158 0
96 -169 0
96 -170 0
169 -169 0
170 -170 0
7 -183 -109 0
-7 183 -109 0
7 183 -110 0
-7 -183 -110 0
25 -183 -121 0
-25 183 -121 0
25 183 -122 0
-25 -183 -122 0
43 -183 -133 0
-43 183 -133 0
43 183 -134 0
-43 -183 -134 0
61 -183 -145 0
-61 183 -145 0
61 183 -146 0
-61 -183 -146 0
79 -183 -157 0
-79 183 -157 0
79 183 -158 0
-79 -183 -158 0
97 -183 -169 0
-97 183 -169 0
97 183 -170 0
-97 -183 -170 0
8 -184 -109 0
-8 184 -109 0
8 184 -110 0
-8 -184 -110 0
26 -184 -121 0
-26 184 -121 0
26 184 -122 0
-26 -184 -122 0
44 -184 -133 0
-44 184 -133 0
44 184 -134 0
-44 -184 -134 0
62 -184 -145 0
-62 184 -145 0
62 184 -146 0
-62 -184 -146 0
80 -184 -157 0
-80 184 -157 0
80 184 -158 0
-80 -184 -158 0
98 -184 -169 0
-98 184 -169 0
98 184 -170 0
-98 -184 -170 0
9 -109 0
9 -110 0
109 -109 0
110 -110 0
27 -121 0
27 -122 0
121 -121 0
122 -122 0
45 -133 0
45 -134 0
133 -133 0
134 -134 0
63 -145 0
63 -146 0
145 -145 0
146 -146 0
81 -157 0
81 -158 0
157 -157 0
158 -158 0
99 -169 0
99 -170 0
169 -169 0
170 -170 0
-10 -109 0
-10 -110 0
109 -109 0
110 -110 0
-28 -121 0
-28 -122 0
121 -121 0
122 -122 0
-46 -133 0
-46 -134 0
133 -133 0
134 -134 0
-64 -145 0
-64 -146 0
145 -145 0
146 -146 0
-82 -157 0
-82 -158 0
157 -157 0
158 -158 0
-100 -169 0
-100 -170 0
169 -169 0
170 -170 0
11 -109 0
11 -110 0
109 -109 0
110 -110 0
29 -121 0
29 -122 0
121 -121 0
122 -122 0
47 -133 0
47 -134 0
133 -133 0
134 -134 0
65 -145 0
65 -146 0
145 -145 0
146 -146 0
83 -157 0
83 -158 0
157 -157 0
158 -158 0
101 -169 0
101 -170 0
169 -169 0
170 -170 0
12 -185 -109 0
-12 185 -109 0
12 185 -110 0
-12 -185 -110 0
30 -185 -121 0
-30 185 -121 0
30 185 -122 0
-30 -185 -122 0
48 -185 -133 0
-48 185 -133 0
48 185 -134 0
-48 -185 -134 0
66 -185 -145 0
-66 185 -145 0
66 185 -146 0
-66 -185 -146 0
84 -185 -157 0
-84 185 -157 0
84 185 -158 0
-84 -185 -158 0
102 -185 -169 0
-102 185 -169 0
102 185 -170 0
-102 -185 -170 0
13 -186 -109 0
-13 186 -109 0
13 186 -110 0
-13 -186 -110 0
31 -186 -121 0
-31 186 -121 0
31 186 -122 0
-31 -186 -122 0
49 -186 -133 0
-49 186 -133 0
49 186 -134 0
-49 -186 -134 0
67 -186 -145 0
-67 186 -145 0
67 186 -146 0
-67 -186 -146 0
85 -186 -157 0
-85 186 -157 0
85 186 -158 0
-85 -186 -158 0
103 -186 -169 0
-103 186 -169 0
103 186 -170 0
-103 -186 -170 0
14 -187 -109 0
-14 187 -109 0
14 187 -110 0
-14 -187 -110 0
32 -187 -121 0
-32 187 -121 0
32 187 -122 0
-32 -187 -122 0
50 -187 -133 0
-50 187 -133 0
50 187 -134 0
-50 -187 -134 0
68 -187 -145 0
-68 187 -145 0
68 187 -146 0
-68 -187 -146 0
86 -187 -157 0
-86 187 -157 0
86 187 -158 0
-86 -187 -158 0
104 -187 -169 0
-104 187 -169 0
104 187 -170 0
-104 -187 -170 0
15 -188 -109 0
-15 188 -109 0
15 188 -110 0
-15 -188 -110 0
33 -188 -121 0
-33 188 -121 0
33 188 -122 0
-33 -188 -122 0
51 -188 -133 0
-51 188 -133 0
51 188 -134 0
-51 -188 -134 0
69 -188 -145 0
-69 188 -145 0
69 188 -146 0
-69 -188 -146 0
87 -188 -157 0
-87 188 -157 0
87 188 -158 0
-87 -188 -158 0
105 -188 -169 0
-105 188 -169 0
105 188 -170 0
-105 -188 -170 0
16 -109 0
16 -110 0
109 -109 0
110 -110 0
34 -121 0
34 -122 0
121 -121 0
122 -122 0
52 -133 0
52 -134 0
133 -133 0
134 -134 0
70 -145 0
70 -146 0
145 -145 0
146 -146 0
88 -157 0
88 -158 0
157 -157 0
158 -158 0
106 -169 0
106 -170 0
169 -169 0
170 -170 0
17 -189 -109 0
-17 189 -109 0
17 189 -110 0
-17 -189 -110 0
35 -189 -121 0
-35 189 -121 0
35 189 -122 0
-35 -189 -122 0
53 -189 -133 0
-53 189 -133 0
53 189 -134 0
-53 -189 -134 0
71 -189 -145 0
-71 189 -145 0
71 189 -146 0
-71 -189 -146 0
89 -189 -157 0
-89 189 -157 0
89 189 -158 0
-89 -189 -158 0
107 -189 -169 0
-107 189 -169 0
107 189 -170 0
-107 -189 -170 0
-18 -109 0
-18 -110 0
109 -109 0
110 -110 0
-36 -121 0
-36 -122 0
121 -121 0
122 -122 0
-54 -133 0
-54 -134 0
133 -133 0
134 -134 0
-72 -145 0
-72 -146 0
145 -145 0
146 -146 0
-90 -157 0
-90 -158 0
157 -157 0
158 -158 0
-108 -169 0
-108 -170 0
169 -169 0
170 -170 0
-289 109 0
289 -109 0
-290 110 0
289 -110 0
-289 -109 0
-290 -110 0
-301 109 289 0
301 -109 0
301 -289 0
-302 110 290 0
302 -110 0
302 -290 0
-301 -121 0
-302 -122 0
-313 121 301 0
313 -121 0
313 -301 0
-314 122 302 0
314 -122 0
314 -302 0
-313 -133 0
-314 -134 0
-325 133 313 0
325 -133 0
325 -313 0
-326 134 314 0
326 -134 0
326 -314 0
-325 -145 0
-326 -146 0
-337 145 325 0
337 -145 0
337 -325 0
-338 146 326 0
338 -146 0
338 -326 0
-337 -157 0
-338 -158 0
-349 157 337 0
349 -157 0
349 -337 0
-350 158 338 0
350 -158 0
350 -338 0
-349 -169 0
-350 -170 0
349 0
350 0
-1 -111 0
-1 -112 0
111 -111 0
112 -112 0
-19 -123 0
-19 -124 0
123 -123 0
124 -124 0
-37 -135 0
-37 -136 0
135 -135 0
136 -136 0
-55 -147 0
-55 -148 0
147 -147 0
148 -148 0
-73 -159 0
-73 -160 0
159 -159 0
160 -160 0
-91 -171 0
-91 -172 0
171 -171 0
172 -172 0
2 -111 0
2 -112 0
111 -111 0
112 -112 0
20 -123 0
20 -124 0
123 -123 0
124 -124 0
38 -135 0
38 -136 0
135 -135 0
136 -136 0
56 -147 0
56 -148 0
147 -147 0
148 -148 0
74 -159 0
74 -160 0
159 -159 0
160 -160 0
92 -171 0
92 -172 0
171 -171 0
172 -172 0
3 -190 -111 0
-3 190 -111 0
3 190 -112 0
-3 -190 -112 0
21 -190 -123 0
-21 190 -123 0
21 190 -124 0
-21 -190 -124 0
39 -190 -135 0
-39 190 -135 0
39 190 -136 0
-39 -190 -136 0
57 -190 -147 0
-57 190 -147 0
57 190 -148 0
-57 -190 -148 0
75 -190 -159 0
-75 190 -159 0
75 190 -160 0
-75 -190 -160 0
93 -190 -171 0
-93 190 -171 0
93 190 -172 0
-93 -190 -172 0
-4 -111 0
-4 -112 0
111 -111 0
112 -112 0
-22 -123 0
-22 -124 0
123 -123 0
124 -124 0
-40 -135 0
-40 -136 0
135 -135 0
136 -136 0
-58 -147 0
-58 -148 0
147 -147 0
148 -148 0
-76 -159 0
-76 -160 0
159 -159 0
160 -160 0
-94 -171 0
-94 -172 0
171 -171 0
172 -172 0
5 -191 -111 0
-5 191 -111 0
5 191 -112 0
-5 -191 -112 0
23 -191 -123 0
-23 191 -123 0
23 191 -124 0
-23 -191 -124 0
41 -191 -135 0
-41 191 -135 0
41 191 -136 0
-41 -191 -136 0
59 -191 -147 0
-59 191 -147 0
59 191 -148 0
-59 -191 -148 0
77 -191 -159 0
-77 191 -159 0
77 191 -160 0
-77 -191 -160 0
95 -191 -171 0
-95 191 -171 0
95 191 -172 0
-95 -191 -172 0
6 -111 0
6 -112 0
111 -111 0
112 -112 0
24 -123 0
24 -124 0
123 -123 0
124 -124 0
42 -135 0
42 -136 0
135 -135 0
136 -136 0
60 -147 0
60 -148 0
147 -147 0
148 -148 0
78 -159 0
78 -160 0
159 -159 0
160 -160 0
96 -171 0
96 -172 0
171 -171 0
172 -172 0
7 -192 -111 0
-7 192 -111 0
7 192 -112 0
-7 -192 -112 0
25 -192 -123 0
-25 192 -123 0
25 192 -124 0
-25 -192 -124 0
43 -192 -135 0
-43 192 -135 0
43 192 -136 0
-43 -192 -136 0
61 -192 -147 0
-61 192 -147 0
61 192 -148 0
-61 -192 -148 0
79 -192 -159 0
-79 192 -159 0
79 192 -160 0
-79 -192 -160 0
97 -192 -171 0
-97 192 -171 0
97 192 -172 0
-97 -192 -172 0
8 -111 0
8 -112 0
111 -111 0
112 -112 0
26 -123 0
26 -124 0
123 -123 0
124 -124 0
44 -135 0
44 -136 0
135 -135 0
136 -136 0
62 -147 0
62 -148 0
147 -147 0
148 -148 0
80 -159 0
80 -160 0
159 -159 0
160 -160 0
98 -171 0
98 -172 0
171 -171 0
172 -172 0
9 -111 0
9 -112 0
111 -111 0
112 -112 0
27 -123 0
27 -124 0
123 -123 0
124 -124 0
45 -135 0
45 -136 0
135 -135 0
136 -136 0
63 -147 0
63 -148 0
147 -147 0
148 -148 0
81 -159 0
81 -160 0
159 -159 0
160 -160 0
99 -171 0
99 -172 0
171 -171 0
172 -172 0
-10 -111 0
-10 -112 0
111 -111 0
112 -112 0
-28 -123 0
-28 -124 0
123 -123 0
124 -124 0
-46 -135 0
-46 -136 0
135 -135 0
136 -136 0
-64 -147 0
-64 -148 0
147 -147 0
148 -148 0
-82 -159 0
-82 -160 0
159 -159 0
160 -160 0
-100 -171 0
-100 -172 0
171 -171 0
172 -172 0
11 -193 -111 0
-11 193 -111 0
11 193 -112 0
-11 -193 -112 0
29 -193 -123 0
-29 193 -123 0
29 193 -124 0
-29 -193 -124 0
47 -193 -135 0
-47 193 -135 0
47 193 -136 0
-47 -193 -136 0
65 -193 -147 0
-65 193 -147 0
65 193 -148 0
-65 -193 -148 0
83 -193 -159 0
-83 193 -159 0
83 193 -160 0
-83 -193 -160 0
101 -193 -171 0
-101 193 -171 0
101 193 -172 0
-101 -193 -172 0
12 -111 0
12 -112 0
111 -111 0
112 -112 0
30 -123 0
30 -124 0
123 -123 0
124 -124 0
48 -135 0
48 -136 0
135 -135 0
136 -136 0
66 -147 0
66 -148 0
147 -147 0
148 -148 0
84 -159 0
84 -160 0
159 -159 0
160 -160 0
102 -171 0
102 -172 0
171 -171 0
172 -172 0
13 -111 0
13 -112 0
111 -111 0
112 -112 0
31 -123 0
31 -124 0
123 -123 0
124 -124 0
49 -135 0
49 -136 0
135 -135 0
136 -136 0
67 -147 0
67 -148 0
147 -147 0
148 -148 0
85 -159 0
85 -160 0
159 -159 0
160 -160 0
103 -171 0
103 -172 0
171 -171 0
172 -172 0
14 -194 -111 0
-14 194 -111 0
14 194 -112 0
-14 -194 -112 0
32 -194 -123 0
-32 194 -123 0
32 194 -124 0
-32 -194 -124 0
50 -194 -135 0
-50 194 -135 0
50 194 -136 0
-50 -194 -136 0
68 -194 -147 0
-68 194 -147 0
68 194 -148 0
-68 -194 -148 0
86 -194 -159 0
-86 194 -159 0
86 194 -160 0
-86 -194 -160 0
104 -194 -171 0
-104 194 -171 0
104 194 -172 0
-104 -194 -172 0
15 -195 -111 0
-15 195 -111 0
15 195 -112 0
-15 -195 -112 0
33 -195 -123 0
-33 195 -123 0
33 195 -124 0
-33 -195 -124 0
51 -195 -135 0
-51 195 -135 0
51 195 -136 0
-51 -195 -136 0
69 -195 -147 0
-69 195 -147 0
69 195 -148 0
-69 -195 -148 0
87 -195 -159 0
-87 195 -159 0
87 195 -160 0
-87 -195 -160 0
105 -195 -171 0
-105 195 -171 0
105 195 -172 0
-105 -195 -172 0
16 -111 0
16 -112 0
111 -111 0
112 -112 0
34 -123 0
34 -124 0
123 -123 0
124 -124 0
52 -135 0
52 -136 0
135 -135 0
136 -136 0
70 -147 0
70 -148 0
147 -147 0
148 -148 0
88 -159 0
88 -160 0
159 -159 0
160 -160 0
106 -171 0
106 -172 0
171 -171 0
172 -172 0
17 -111 0
17 -112 0
111 -111 0
112 -112 0
35 -123 0
35 -124 0
123 -123 0
124 -124 0
53 -135 0
53 -136 0
135 -135 0
136 -136 0
71 -147 0
71 -148 0
147 -147 0
148 -148 0
89 -159 0
89 -160 0
159 -159 0
160 -160 0
107 -171 0
107 -172 0
171 -171 0
172 -172 0
18 -196 -111 0
-18 196 -111 0
18 196 -112 0
-18 -196 -112 0
36 -196 -123 0
-36 196 -123 0
36 196 -124 0
-36 -196 -124 0
54 -196 -135 0
-54 196 -135 0
54 196 -136 0
-54 -196 -136 0
72 -196 -147 0
-72 196 -147 0
72 196 -148 0
-72 -196 -148 0
90 -196 -159 0
-90 196 -159 0
90 196 -160 0
-90 -196 -160 0
108 -196 -171 0
-108 196 -171 0
108 196 -172 0
-108 -196 -172 0
-291 111 0
291 -111 0
-292 112 0
291 -112 0
-291 -111 0
-292 -112 0
-303 111 291 0
303 -111 0
303 -291 0
-304 112 292 0
304 -112 0
304 -292 0
-303 -123 0
-304 -124 0
-315 123 303 0
315 -123 0
315 -303 0
-316 124 304 0
316 -124 0
316 -304 0
-315 -135 0
-316 -136 0
-327 135 315 0
327 -135 0
327 -315 0
-328 136 316 0
328 -136 0
328 -316 0
-327 -147 0
-328 -148 0
-339 147 327 0
339 -147 0
339 -327 0
-340 148 328 0
340 -148 0
340 -328 0
-339 -159 0
-340 -160 0
-351 159 339 0
351 -159 0
351 -339 0
-352 160 340 0
352 -160 0
352 -340 0
-351 -171 0
-352 -172 0
351 0
352 0
1 -197 -113 0
-1 197 -113 0
1 197 -114 0
-1 -197 -114 0
19 -197 -125 0
-19 197 -125 0
19 197 -126 0
-19 -197 -126 0
37 -197 -137 0
-37 197 -137 0
37 197 -138 0
-37 -197 -138 0
55 -197 -149 0
-55 197 -149 0
55 197 -150 0
-55 -197 -150 0
73 -197 -161 0
-73 197 -161 0
73 197 -162 0
-73 -197 -162 0
91 -197 -173 0
-91 197 -173 0
91 197 -174 0
-91 -197 -174 0
2 -113 0
2 -114 0
113 -113 0
114 -114 0
20 -125 0
20 -126 0
125 -125 0
126 -126 0
38 -137 0
38 -138 0
137 -137 0
138 -138 0
56 -149 0
56 -150 0
149 -149 0
150 -150 0
74 -161 0
74 -162 0
161 -161 0
162 -162 0
92 -173 0
92 -174 0
173 -173 0
174 -174 0
3 -113 0
3 -114 0
113 -113 0
114 -114 0
21 -125 0
21 -126 0
125 -125 0
126 -126 0
39 -137 0
39 -138 0
137 -137 0
138 -138 0
57 -149 0
57 -150 0
149 -149 0
150 -150 0
75 -161 0
75 -162 0
161 -161 0
162 -162 0
93 -173 0
93 -174 0
173 -173 0
174 -174 0
4 -113 0
4 -114 0
113 -113 0
114 -114 0
22 -125 0
22 -126 0
125 -125 0
126 -126 0
40 -137 0
40 -138 0
137 -137 0
138 -138 0
58 -149 0
58 -150 0
149 -149 0
150 -150 0
76 -161 0
76 -162 0
161 -161 0
162 -162 0
94 -173 0
94 -174 0
173 -173 0
174 -174 0
5 -113 0
5 -114 0
113 -113 0
114 -114 0
23 -125 0
23 -126 0
125 -125 0
126 -126 0
41 -137 0
41 -138 0
137 -137 0
138 -138 0
59 -149 0
59 -150 0
149 -149 0
150 -150 0
77 -161 0
77 -162 0
161 -161 0
162 -162 0
95 -173 0
95 -174 0
173 -173 0
174 -174 0
6 -113 0
6 -114 0
113 -113 0
114 -114 0
24 -125 0
24 -126 0
125 -125 0
126 -126 0
42 -137 0
42 -138 0
137 -137 0
138 -138 0
60 -149 0
60 -150 0
149 -149 0
150 -150 0
78 -161 0
78 -162 0
161 -161 0
162 -162 0
96 -173 0
96 -174 0
173 -173 0
174 -174 0
7 -113 0
7 -114 0
113 -113 0
114 -114 0
25 -125 0
25 -126 0
125 -125 0
126 -126 0
43 -137 0
43 -138 0
137 -137 0
138 -138 0
61 -149 0
61 -150 0
149 -149 0
150 -150 0
79 -161 0
79 -162 0
161 -161 0
162 -162 0
97 -173 0
97 -174 0
173 -173 0
174 -174 0
8 -113 0
8 -114 0
113 -113 0
114 -114 0
26 -125 0
26 -126 0
125 -125 0
126 -126 0
44 -137 0
44 -138 0
137 -137 0
138 -138 0
62 -149 0
62 -150 0
149 -149 0
150 -150 0
80 -161 0
80 -162 0
161 -161 0
162 -162 0
98 -173 0
98 -174 0
173 -173 0
174 -174 0
-9 -113 0
-9 -114 0
113 -113 0
114 -114 0
-27 -125 0
-27 -126 0
125 -125 0
126 -126 0
-45 -137 0
-45 -138 0
137 -137 0
138 -138 0
-63 -149 0
-63 -150 0
149 -149 0
150 -150 0
-81 -161 0
-81 -162 0
161 -161 0
162 -162 0
-99 -173 0
-99 -174 0
173 -173 0
174 -174 0
10 -113 0
10 -114 0
113 -113 0
114 -114 0
28 -125 0
28 -126 0
125 -125 0
126 -126 0
46 -137 0
46 -138 0
137 -137 0
138 -138 0
64 -149 0
64 -150 0
149 -149 0
150 -150 0
82 -161 0
82 -162 0
161 -161 0
162 -162 0
100 -173 0
100 -174 0
173 -173 0
174 -174 0
11 -113 0
11 -114 0
113 -113 0
114 -114 0
29 -125 0
29 -126 0
125 -125 0
126 -126 0
47 -137 0
47 -138 0
137 -137 0
138 -138 0
65 -149 0
65 -150 0
149 -149 0
150 -150 0
83 -161 0
83 -162 0
161 -161 0
162 -162 0
101 -173 0
101 -174 0
173 -173 0
174 -174 0
12 -113 0
12 -114 0
113 -113 0
114 -114 0
30 -125 0
30 -126 0
125 -125 0
126 -126 0
48 -137 0
48 -138 0
137 -137 0
138 -138 0
66 -149 0
66 -150 0
149 -149 0
150 -150 0
84 -161 0
84 -162 0
161 -161 0
162 -162 0
102 -173 0
102 -174 0
173 -173 0
174 -174 0
13 -113 0
13 -114 0
113 -113 0
114 -114 0
31 -125 0
31 -126 0
125 -125 0
126 -126 0
49 -137 0
49 -138 0
137 -137 0
138 -138 0
67 -149 0
67 -150 0
149 -149 0
150 -150 0
85 -161 0
85 -162 0
161 -161 0
162 -162 0
103 -173 0
103 -174 0
173 -173 0
174 -174 0
-14 -113 0
-14 -114 0
113 -113 0
114 -114 0
-32 -125 0
-32 -126 0
125 -125 0
126 -126 0
-50 -137 0
-50 -138 0
137 -137 0
138 -138 0
-68 -149 0
-68 -150 0
149 -149 0
150 -150 0
-86 -161 0
-86 -162 0
161 -161 0
162 -162 0
-104 -173 0
-104 -174 0
173 -173 0
174 -174 0
-15 -113 0
-15 -114 0
113 -113 0
114 -114 0
-33 -125 0
-33 -126 0
125 -125 0
126 -126 0
-51 -137 0
-51 -138 0
137 -137 0
138 -138 0
-69 -149 0
-69 -150 0
149 -149 0
150 -150 0
-87 -161 0
-87 -162 0
161 -161 0
162 -162 0
-105 -173 0
-105 -174 0
173 -173 0
174 -174 0
16 -113 0
16 -114 0
113 -113 0
114 -114 0
34 -125 0
34 -126 0
125 -125 0
126 -126 0
52 -137 0
52 -138 0
137 -137 0
138 -138 0
70 -149 0
70 -150 0
149 -149 0
150 -150 0
88 -161 0
88 -162 0
161 -161 0
162 -162 0
106 -173 0
106 -174 0
173 -173 0
174 -174 0
17 -113 0
17 -114 0
113 -113 0
114 -114 0
35 -125 0
35 -126 0
125 -125 0
126 -126 0
53 -137 0
53 -138 0
137 -137 0
138 -138 0
71 -149 0
71 -150 0
149 -149 0
150 -150 0
89 -161 0
89 -162 0
161 -161 0
162 -162 0
107 -173 0
107 -174 0
173 -173 0
174 -174 0
-18 -113 0
-18 -114 0
113 -113 0
114 -114 0
-36 -125 0
-36 -126 0
125 -125 0
126 -126 0
-54 -137 0
-54 -138 0
137 -137 0
138 -138 0
-72 -149 0
-72 -150 0
149 -149 0
150 -150 0
-90 -161 0
-90 -162 0
161 -161 0
162 -162 0
-108 -173 0
-108 -174 0
173 -173 0
174 -174 0
-293 113 0
293 -113 0
-294 114 0
293 -114 0
-293 -113 0
-294 -114 0
-305 113 293 0
305 -113 0
305 -293 0
-306 114 294 0
306 -114 0
306 -294 0
-305 -125 0
-306 -126 0
-317 125 305 0
317 -125 0
317 -305 0
-318 126 306 0
318 -126 0
318 -306 0
-317 -137 0
-318 -138 0
-329 137 317 0
329 -137 0
329 -317 0
-330 138 318 0
330 -138 0
330 -318 0
-329 -149 0
-330 -150 0
-341 149 329 0
341 -149 0
341 -329 0
-342 150 330 0
342 -150 0
342 -330 0
-341 -161 0
-342 -162 0
-353 161 341 0
353 -161 0
353 -341 0
-354 162 342 0
354 -162 0
354 -342 0
-353 -173 0
-354 -174 0
353 0
354 0
1 -198 -115 0
-1 198 -115 0
1 198 -116 0
-1 -198 -116 0
19 -198 -127 0
-19 198 -127 0
19 198 -128 0
-19 -198 -128 0
37 -198 -139 0
-37 198 -139 0
37 198 -140 0
-37 -198 -140 0
55 -198 -151 0
-55 198 -151 0
55 198 -152 0
-55 -198 -152 0
73 -198 -163 0
-73 198 -163 0
73 198 -164 0
-73 -198 -164 0
91 -198 -175 0
-91 198 -175 0
91 198 -176 0
-91 -198 -176 0
2 -115 0
2 -116 0
115 -115 0
116 -116 0
20 -127 0
20 -128 0
127 -127 0
128 -128 0
38 -139 0
38 -140 0
139 -139 0
140 -140 0
56 -151 0
56 -152 0
151 -151 0
152 -152 0
74 -163 0
74 -164 0
163 -163 0
164 -164 0
92 -175 0
92 -176 0
175 -175 0
176 -176 0
3 -115 0
3 -116 0
115 -115 0
116 -116 0
21 -127 0
21 -128 0
127 -127 0
128 -128 0
39 -139 0
39 -140 0
139 -139 0
140 -140 0
57 -151 0
57 -152 0
151 -151 0
152 -152 0
75 -163 0
75 -164 0
163 -163 0
164 -164 0
93 -175 0
93 -176 0
175 -175 0
176 -176 0
4 -199 -115 0
-4 199 -115 0
4 199 -116 0
-4 -199 -116 0
22 -199 -127 0
-22 199 -127 0
22 199 -128 0
-22 -199 -128 0
40 -199 -139 0
-40 199 -139 0
40 199 -140 0
-40 -199 -140 0
58 -199 -151 0
-58 199 -151 0
58 199 -152 0
-58 -199 -152 0
76 -199 -163 0
-76 199 -163 0
76 199 -164 0
-76 -199 -164 0
94 -199 -175 0
-94 199 -175 0
94 199 -176 0
-94 -199 -176 0
5 -115 0
5 -116 0
115 -115 0
116 -116 0
23 -127 0
23 -128 0
127 -127 0
128 -128 0
41 -139 0
41 -140 0
139 -139 0
140 -140 0
59 -151 0
59 -152 0
151 -151 0
152 -152 0
77 -163 0
77 -164 0
163 -163 0
164 -164 0
95 -175 0
95 -176 0
175 -175 0
176 -176 0
-6 -115 0
-6 -116 0
115 -115 0
116 -116 0
-24 -127 0
-24 -128 0
127 -127 0
128 -128 0
-42 -139 0
-42 -140 0
139 -139 0
140 -140 0
-60 -151 0
-60 -152 0
151 -151 0
152 -152 0
-78 -163 0
-78 -164 0
163 -163 0
164 -164 0
-96 -175 0
-96 -176 0
175 -175 0
176 -176 0
7 -115 0
7 -116 0
115 -115 0
116 -116 0
25 -127 0
25 -128 0
127 -127 0
128 -128 0
43 -139 0
43 -140 0
139 -139 0
140 -140 0
61 -151 0
61 -152 0
151 -151 0
152 -152 0
79 -163 0
79 -164 0
163 -163 0
164 -164 0
97 -175 0
97 -176 0
175 -175 0
176 -176 0
8 -115 0
8 -116 0
115 -115 0
116 -116 0
26 -127 0
26 -128 0
127 -127 0
128 -128 0
44 -139 0
44 -140 0
139 -139 0
140 -140 0
62 -151 0
62 -152 0
151 -151 0
152 -152 0
80 -163 0
80 -164 0
163 -163 0
164 -164 0
98 -175 0
98 -176 0
175 -175 0
176 -176 0
9 -115 0
9 -116 0
115 -115 0
116 -116 0
27 -127 0
27 -128 0
127 -127 0
128 -128 0
45 -139 0
45 -140 0
139 -139 0
140 -140 0
63 -151 0
63 -152 0
151 -151 0
152 -152 0
81 -163 0
81 -164 0
163 -163 0
164 -164 0
99 -175 0
99 -176 0
175 -175 0
176 -176 0
-10 -115 0
-10 -116 0
115 -115 0
116 -116 0
-28 -127 0
-28 -128 0
127 -127 0
128 -128 0
-46 -139 0
-46 -140 0
139 -139 0
140 -140 0
-64 -151 0
-64 -152 0
151 -151 0
152 -152 0
-82 -163 0
-82 -164 0
163 -163 0
164 -164 0
-100 -175 0
-100 -176 0
175 -175 0
176 -176 0
11 -115 0
11 -116 0
115 -115 0
116 -116 0
29 -127 0
29 -128 0
127 -127 0
128 -128 0
47 -139 0
47 -140 0
139 -139 0
140 -140 0
65 -151 0
65 -152 0
151 -151 0
152 -152 0
83 -163 0
83 -164 0
163 -163 0
164 -164 0
101 -175 0
101 -176 0
175 -175 0
176 -176 0
12 -115 0
12 -116 0
115 -115 0
116 -116 0
30 -127 0
30 -128 0
127 -127 0
128 -128 0
48 -139 0
48 -140 0
139 -139 0
140 -140 0
66 -151 0
66 -152 0
151 -151 0
152 -152 0
84 -163 0
84 -164 0
163 -163 0
164 -164 0
102 -175 0
102 -176 0
175 -175 0
176 -176 0
13 -115 0
13 -116 0
115 -115 0
116 -116 0
31 -127 0
31 -128 0
127 -127 0
128 -128 0
49 -139 0
49 -140 0
139 -139 0
140 -140 0
67 -151 0
67 -152 0
151 -151 0
152 -152 0
85 -163 0
85 -164 0
163 -163 0
164 -164 0
103 -175 0
103 -176 0
175 -175 0
176 -176 0
14 -200 -115 0
-14 200 -115 0
14 200 -116 0
-14 -200 -116 0
32 -200 -127 0
-32 200 -127 0
32 200 -128 0
-32 -200 -128 0
50 -200 -139 0
-50 200 -139 0
50 200 -140 0
-50 -200 -140 0
68 -200 -151 0
-68 200 -151 0
68 200 -152 0
-68 -200 -152 0
86 -200 -163 0
-86 200 -163 0
86 200 -164 0
-86 -200 -164 0
104 -200 -175 0
-104 200 -175 0
104 200 -176 0
-104 -200 -176 0
15 -201 -115 0
-15 201 -115 0
15 201 -116 0
-15 -201 -116 0
33 -201 -127 0
-33 201 -127 0
33 201 -128 0
-33 -201 -128 0
51 -201 -139 0
-51 201 -139 0
51 201 -140 0
-51 -201 -140 0
69 -201 -151 0
-69 201 -151 0
69 201 -152 0
-69 -201 -152 0
87 -201 -163 0
-87 201 -163 0
87 201 -164 0
-87 -201 -164 0
105 -201 -175 0
-105 201 -175 0
105 201 -176 0
-105 -201 -176 0
16 -115 0
16 -116 0
115 -115 0
116 -116 0
34 -127 0
34 -128 0
127 -127 0
128 -128 0
52 -139 0
52 -140 0
139 -139 0
140 -140 0
70 -151 0
70 -152 0
151 -151 0
152 -152 0
88 -163 0
88 -164 0
163 -163 0
164 -164 0
106 -175 0
106 -176 0
175 -175 0
176 -176 0
17 -115 0
17 -116 0
115 -115 0
116 -116 0
35 -127 0
35 -128 0
127 -127 0
128 -128 0
53 -139 0
53 -140 0
139 -139 0
140 -140 0
71 -151 0
71 -152 0
151 -151 0
152 -152 0
89 -163 0
89 -164 0
163 -163 0
164 -164 0
107 -175 0
107 -176 0
175 -175 0
176 -176 0
18 -202 -115 0
-18 202 -115 0
18 202 -116 0
-18 -202 -116 0
36 -202 -127 0
-36 202 -127 0
36 202 -128 0
-36 -202 -128 0
54 -202 -139 0
-54 202 -139 0
54 202 -140 0
-54 -202 -140 0
72 -202 -151 0
-72 202 -151 0
72 202 -152 0
-72 -202 -152 0
90 -202 -163 0
-90 202 -163 0
90 202 -164 0
-90 -202 -164 0
108 -202 -175 0
-108 202 -175 0
108 202 -176 0
-108 -202 -176 0
-295 115 0
295 -115 0
-296 116 0
295 -116 0
-295 -115 0
-296 -116 0
-307 115 295 0
307 -115 0
307 -295 0
-308 116 296 0
308 -116 0
308 -296 0
-307 -127 0
-308 -128 0
-319 127 307 0
319 -127 0
319 -307 0
-320 128 308 0
320 -128 0
320 -308 0
-319 -139 0
-320 -140 0
-331 139 319 0
331 -139 0
331 -319 0
-332 140 320 0
332 -140 0
332 -320 0
-331 -151 0
-332 -152 0
-343 151 331 0
343 -151 0
343 -331 0
-344 152 332 0
344 -152 0
344 -332 0
-343 -163 0
-344 -164 0
-355 163 343 0
355 -163 0
355 -343 0
-356 164 344 0
356 -164 0
356 -344 0
-355 -175 0
-356 -176 0
355 0
356 0
1 -203 -117 0
-1 203 -117 0
1 203 -118 0
-1 -203 -118 0
19 -203 -129 0
-19 203 -129 0
19 203 -130 0
-19 -203 -130 0
37 -203 -141 0
-37 203 -141 0
37 203 -142 0
-37 -203 -142 0
55 -203 -153 0
-55 203 -153 0
55 203 -154 0
-55 -203 -154 0
73 -203 -165 0
-73 203 -165 0
73 203 -166 0
-73 -203 -166 0
91 -203 -177 0
-91 203 -177 0
91 203 -178 0
-91 -203 -178 0
2 -117 0
2 -118 0
117 -117 0
118 -118 0
20 -129 0
20 -130 0
129 -129 0
130 -130 0
38 -141 0
38 -142 0
141 -141 0
142 -142 0
56 -153 0
56 -154 0
153 -153 0
154 -154 0
74 -165 0
74 -166 0
165 -165 0
166 -166 0
92 -177 0
92 -178 0
177 -177 0
178 -178 0
3 -117 0
3 -118 0
117 -117 0
118 -118 0
21 -129 0
21 -130 0
129 -129 0
130 -130 0
39 -141 0
39 -142 0
141 -141 0
142 -142 0
57 -153 0
57 -154 0
153 -153 0
154 -154 0
75 -165 0
75 -166 0
165 -165 0
166 -166 0
93 -177 0
93 -178 0
177 -177 0
178 -178 0
4 -204 -117 0
-4 204 -117 0
4 204 -118 0
-4 -204 -118 0
22 -204 -129 0
-22 204 -129 0
22 204 -130 0
-22 -204 -130 0
40 -204 -141 0
-40 204 -141 0
40 204 -142 0
-40 -204 -142 0
58 -204 -153 0
-58 204 -153 0
58 204 -154 0
-58 -204 -154 0
76 -204 -165 0
-76 204 -165 0
76 204 -166 0
-76 -204 -166 0
94 -204 -177 0
-94 204 -177 0
94 204 -178 0
-94 -204 -178 0
5 -117 0
5 -118 0
117 -117 0
118 -118 0
23 -129 0
23 -130 0
129 -129 0
130 -130 0
41 -141 0
41 -142 0
141 -141 0
142 -142 0
59 -153 0
59 -154 0
153 -153 0
154 -154 0
77 -165 0
77 -166 0
165 -165 0
166 -166 0
95 -177 0
95 -178 0
177 -177 0
178 -178 0
6 -205 -117 0
-6 205 -117 0
6 205 -118 0
-6 -205 -118 0
24 -205 -129 0
-24 205 -129 0
24 205 -130 0
-24 -205 -130 0
42 -205 -141 0
-42 205 -141 0
42 205 -142 0
-42 -205 -142 0
60 -205 -153 0
-60 205 -153 0
60 205 -154 0
-60 -205 -154 0
78 -205 -165 0
-78 205 -165 0
78 205 -166 0
-78 -205 -166 0
96 -205 -177 0
-96 205 -177 0
96 205 -178 0
-96 -205 -178 0
7 -117 0
7 -118 0
117 -117 0
118 -118 0
25 -129 0
25 -130 0
129 -129 0
130 -130 0
43 -141 0
43 -142 0
141 -141 0
142 -142 0
61 -153 0
61 -154 0
153 -153 0
154 -154 0
79 -165 0
79 -166 0
165 -165 0
166 -166 0
97 -177 0
97 -178 0
177 -177 0
178 -178 0
8 -117 0
8 -118 0
117 -117 0
118 -118 0
26 -129 0
26 -130 0
129 -129 0
130 -130 0
44 -141 0
44 -142 0
141 -141 0
142 -142 0
62 -153 0
62 -154 0
153 -153 0
154 -154 0
80 -165 0
80 -166 0
165 -165 0
166 -166 0
98 -177 0
98 -178 0
177 -177 0
178 -178 0
9 -117 0
9 -118 0
117 -117 0
118 -118 0
27 -129 0
27 -130 0
129 -129 0
130 -130 0
45 -141 0
45 -142 0
141 -141 0
142 -142 0
63 -153 0
63 -154 0
153 -153 0
154 -154 0
81 -165 0
81 -166 0
165 -165 0
166 -166 0
99 -177 0
99 -178 0
177 -177 0
178 -178 0
-10 -117 0
-10 -118 0
117 -117 0
118 -118 0
-28 -129 0
-28 -130 0
129 -129 0
130 -130 0
-46 -141 0
-46 -142 0
141 -141 0
142 -142 0
-64 -153 0
-64 -154 0
153 -153 0
154 -154 0
-82 -165 0
-82 -166 0
165 -165 0
166 -166 0
-100 -177 0
-100 -178 0
177 -177 0
178 -178 0
11 -117 0
11 -118 0
117 -117 0
118 -118 0
29 -129 0
29 -130 0
129 -129 0
130 -130 0
47 -141 0
47 -142 0
141 -141 0
142 -142 0
65 -153 0
65 -154 0
153 -153 0
154 -154 0
83 -165 0
83 -166 0
165 -165 0
166 -166 0
101 -177 0
101 -178 0
177 -177 0
178 -178 0
12 -206 -117 0
-12 206 -117 0
12 206 -118 0
-12 -206 -118 0
30 -206 -129 0
-30 206 -129 0
30 206 -130 0
-30 -206 -130 0
48 -206 -141 0
-48 206 -141 0
48 206 -142 0
-48 -206 -142 0
66 -206 -153 0
-66 206 -153 0
66 206 -154 0
-66 -206 -154 0
84 -206 -165 0
-84 206 -165 0
84 206 -166 0
-84 -206 -166 0
102 -206 -177 0
-102 206 -177 0
102 206 -178 0
-102 -206 -178 0
13 -117 0
13 -118 0
117 -117 0
118 -118 0
31 -129 0
31 -130 0
129 -129 0
130 -130 0
49 -141 0
49 -142 0
141 -141 0
142 -142 0
67 -153 0
67 -154 0
153 -153 0
154 -154 0
85 -165 0
85 -166 0
165 -165 0
166 -166 0
103 -177 0
103 -178 0
177 -177 0
178 -178 0
14 -117 0
14 -118 0
117 -117 0
118 -118 0
32 -129 0
32 -130 0
129 -129 0
130 -130 0
50 -141 0
50 -142 0
141 -141 0
142 -142 0
68 -153 0
68 -154 0
153 -153 0
154 -154 0
86 -165 0
86 -166 0
165 -165 0
166 -166 0
104 -177 0
104 -178 0
177 -177 0
178 -178 0
15 -117 0
15 -118 0
117 -117 0
118 -118 0
33 -129 0
33 -130 0
129 -129 0
130 -130 0
51 -141 0
51 -142 0
141 -141 0
142 -142 0
69 -153 0
69 -154 0
153 -153 0
154 -154 0
87 -165 0
87 -166 0
165 -165 0
166 -166 0
105 -177 0
105 -178 0
177 -177 0
178 -178 0
16 -117 0
16 -118 0
117 -117 0
118 -118 0
34 -129 0
34 -130 0
129 -129 0
130 -130 0
52 -141 0
52 -142 0
141 -141 0
142 -142 0
70 -153 0
70 -154 0
153 -153 0
154 -154 0
88 -165 0
88 -166 0
165 -165 0
166 -166 0
106 -177 0
106 -178 0
177 -177 0
178 -178 0
17 -117 0
17 -118 0
117 -117 0
118 -118 0
35 -129 0
35 -130 0
129 -129 0
130 -130 0
53 -141 0
53 -142 0
141 -141 0
142 -142 0
71 -153 0
71 -154 0
153 -153 0
154 -154 0
89 -165 0
89 -166 0
165 -165 0
166 -166 0
107 -177 0
107 -178 0
177 -177 0
178 -178 0
-18 -117 0
-18 -118 0
117 -117 0
118 -118 0
-36 -129 0
-36 -130 0
129 -129 0
130 -130 0
-54 -141 0
-54 -142 0
141 -141 0
142 -142 0
-72 -153 0
-72 -154 0
153 -153 0
154 -154 0
-90 -165 0
-90 -166 0
165 -165 0
166 -166 0
-108 -177 0
-108 -178 0
177 -177 0
178 -178 0
-297 117 0
297 -117 0
-298 118 0
297 -118 0
-297 -117 0
-298 -118 0
-309 117 297 0
309 -117 0
309 -297 0
-310 118 298 0
310 -118 0
310 -298 0
-309 -129 0
-310 -130 0
-321 129 309 0
321 -129 0
321 -309 0
-322 130 310 0
322 -130 0
322 -310 0
-321 -141 0
-322 -142 0
-333 141 321 0
333 -141 0
333 -321 0
-334 142 322 0
334 -142 0
334 -322 0
-333 -153 0
-334 -154 0
-345 153 333 0
345 -153 0
345 -333 0
-346 154 334 0
346 -154 0
346 -334 0
-345 -165 0
-346 -166 0
-357 165 345 0
357 -165 0
357 -345 0
-358 166 346 0
358 -166 0
358 -346 0
-357 -177 0
-358 -178 0
357 0
358 0
1 -119 0
1 -120 0
119 -119 0
120 -120 0
19 -131 0
19 -132 0
131 -131 0
132 -132 0
37 -143 0
37 -144 0
143 -143 0
144 -144 0
55 -155 0
55 -156 0
155 -155 0
156 -156 0
73 -167 0
73 -168 0
167 -167 0
168 -168 0
91 -179 0
91 -180 0
179 -179 0
180 -180 0
2 -119 0
2 -120 0
119 -119 0
120 -120 0
20 -131 0
20 -132 0
131 -131 0
132 -132 0
38 -143 0
38 -144 0
143 -143 0
144 -144 0
56 -155 0
56 -156 0
155 -155 0
156 -156 0
74 -167 0
74 -168 0
167 -167 0
168 -168 0
92 -179 0
92 -180 0
179 -179 0
180 -180 0
3 -207 -119 0
-3 207 -119 0
3 207 -120 0
-3 -207 -120 0
21 -207 -131 0
-21 207 -131 0
21 207 -132 0
-21 -207 -132 0
39 -207 -143 0
-39 207 -143 0
39 207 -144 0
-39 -207 -144 0
57 -207 -155 0
-57 207 -155 0
57 207 -156 0
-57 -207 -156 0
75 -207 -167 0
-75 207 -167 0
75 207 -168 0
-75 -207 -168 0
93 -207 -179 0
-93 207 -179 0
93 207 -180 0
-93 -207 -180 0
4 -208 -119 0
-4 208 -119 0
4 208 -120 0
-4 -208 -120 0
22 -208 -131 0
-22 208 -131 0
22 208 -132 0
-22 -208 -132 0
40 -208 -143 0
-40 208 -143 0
40 208 -144 0
-40 -208 -144 0
58 -208 -155 0
-58 208 -155 0
58 208 -156 0
-58 -208 -156 0
76 -208 -167 0
-76 208 -167 0
76 208 -168 0
-76 -208 -168 0
94 -208 -179 0
-94 208 -179 0
94 208 -180 0
-94 -208 -180 0
5 -119 0
5 -120 0
119 -119 0
120 -120 0
23 -131 0
23 -132 0
131 -131 0
132 -132 0
41 -143 0
41 -144 0
143 -143 0
144 -144 0
59 -155 0
59 -156 0
155 -155 0
156 -156 0
77 -167 0
77 -168 0
167 -167 0
168 -168 0
95 -179 0
95 -180 0
179 -179 0
180 -180 0
6 -119 0
6 -120 0
119 -119 0
120 -120 0
24 -131 0
24 -132 0
131 -131 0
132 -132 0
42 -143 0
42 -144 0
143 -143 0
144 -144 0
60 -155 0
60 -156 0
155 -155 0
156 -156 0
78 -167 0
78 -168 0
167 -167 0
168 -168 0
96 -179 0
96 -180 0
179 -179 0
180 -180 0
7 -119 0
7 -120 0
119 -119 0
120 -120 0
25 -131 0
25 -132 0
131 -131 0
132 -132 0
43 -143 0
43 -144 0
143 -143 0
144 -144 0
61 -155 0
61 -156 0
155 -155 0
156 -156 0
79 -167 0
79 -168 0
167 -167 0
168 -168 0
97 -179 0
97 -180 0
179 -179 0
180 -180 0
8 -119 0
8 -120 0
119 -119 0
120 -120 0
26 -131 0
26 -132 0
131 -131 0
132 -132 0
44 -143 0
44 -144 0
143 -143 0
144 -144 0
62 -155 0
62 -156 0
155 -155 0
156 -156 0
80 -167 0
80 -168 0
167 -167 0
168 -168 0
98 -179 0
98 -180 0
179 -179 0
180 -180 0
9 -209 -119 0
-9 209 -119 0
9 209 -120 0
-9 -209 -120 0
27 -209 -131 0
-27 209 -131 0
27 209 -132 0
-27 -209 -132 0
45 -209 -143 0
-45 209 -143 0
45 209 -144 0
-45 -209 -144 0
63 -209 -155 0
-63 209 -155 0
63 209 -156 0
-63 -209 -156 0
81 -209 -167 0
-81 209 -167 0
81 209 -168 0
-81 -209 -168 0
99 -209 -179 0
-99 209 -179 0
99 209 -180 0
-99 -209 -180 0
10 -210 -119 0
-10 210 -119 0
10 210 -120 0
-10 -210 -120 0
28 -210 -131 0
-28 210 -131 0
28 210 -132 0
-28 -210 -132 0
46 -210 -143 0
-46 210 -143 0
46 210 -144 0
-46 -210 -144 0
64 -210 -155 0
-64 210 -155 0
64 210 -156 0
-64 -210 -156 0
82 -210 -167 0
-82 210 -167 0
82 210 -168 0
-82 -210 -168 0
100 -210 -179 0
-100 210 -179 0
100 210 -180 0
-100 -210 -180 0
11 -119 0
11 -120 0
119 -119 0
120 -120 0
29 -131 0
29 -132 0
131 -131 0
132 -132 0
47 -143 0
47 -144 0
143 -143 0
144 -144 0
65 -155 0
65 -156 0
155 -155 0
156 -156 0
83 -167 0
83 -168 0
167 -167 0
168 -168 0
101 -179 0
101 -180 0
179 -179 0
180 -180 0
12 -119 0
12 -120 0
119 -119 0
120 -120 0
30 -131 0
30 -132 0
131 -131 0
132 -132 0
48 -143 0
48 -144 0
143 -143 0
144 -144 0
66 -155 0
66 -156 0
155 -155 0
156 -156 0
84 -167 0
84 -168 0
167 -167 0
168 -168 0
102 -179 0
102 -180 0
179 -179 0
180 -180 0
13 -119 0
13 -120 0
119 -119 0
120 -120 0
31 -131 0
31 -132 0
131 -131 0
132 -132 0
49 -143 0
49 -144 0
143 -143 0
144 -144 0
67 -155 0
67 -156 0
155 -155 0
156 -156 0
85 -167 0
85 -168 0
167 -167 0
168 -168 0
103 -179 0
103 -180 0
179 -179 0
180 -180 0
14 -211 -119 0
-14 211 -119 0
14 211 -120 0
-14 -211 -120 0
32 -211 -131 0
-32 211 -131 0
32 211 -132 0
-32 -211 -132 0
50 -211 -143 0
-50 211 -143 0
50 211 -144 0
-50 -211 -144 0
68 -211 -155 0
-68 211 -155 0
68 211 -156 0
-68 -211 -156 0
86 -211 -167 0
-86 211 -167 0
86 211 -168 0
-86 -211 -168 0
104 -211 -179 0
-104 211 -179 0
104 211 -180 0
-104 -211 -180 0
15 -212 -119 0
-15 212 -119 0
15 212 -120 0
-15 -212 -120 0
33 -212 -131 0
-33 212 -131 0
33 212 -132 0
-33 -212 -132 0
51 -212 -143 0
-51 212 -143 0
51 212 -144 0
-51 -212 -144 0
69 -212 -155 0
-69 212 -155 0
69 212 -156 0
-69 -212 -156 0
87 -212 -167 0
-87 212 -167 0
87 212 -168 0
-87 -212 -168 0
105 -212 -179 0
-105 212 -179 0
105 212 -180 0
-105 -212 -180 0
16 -119 0
16 -120 0
119 -119 0
120 -120 0
34 -131 0
34 -132 0
131 -131 0
132 -132 0
52 -143 0
52 -144 0
143 -143 0
144 -144 0
70 -155 0
70 -156 0
155 -155 0
156 -156 0
88 -167 0
88 -168 0
167 -167 0
168 -168 0
106 -179 0
106 -180 0
179 -179 0
180 -180 0
17 -119 0
17 -120 0
119 -119 0
120 -120 0
35 -131 0
35 -132 0
131 -131 0
132 -132 0
53 -143 0
53 -144 0
143 -143 0
144 -144 0
71 -155 0
71 -156 0
155 -155 0
156 -156 0
89 -167 0
89 -168 0
167 -167 0
168 -168 0
107 -179 0
107 -180 0
179 -179 0
180 -180 0
18 -213 -119 0
-18 213 -119 0
18 213 -120 0
-18 -213 -120 0
36 -213 -131 0
-36 213 -131 0
36 213 -132 0
-36 -213 -132 0
54 -213 -143 0
-54 213 -143 0
54 213 -144 0
-54 -213 -144 0
72 -213 -155 0
-72 213 -155 0
72 213 -156 0
-72 -213 -156 0
90 -213 -167 0
-90 213 -167 0
90 213 -168 0
-90 -213 -168 0
108 -213 -179 0
-108 213 -179 0
108 213 -180 0
-108 -213 -180 0
-299 119 0
299 -119 0
-300 120 0
299 -120 0
-299 -119 0
-300 -120 0
-311 119 299 0
311 -119 0
311 -299 0
-312 120 300 0
312 -120 0
312 -300 0
-311 -131 0
-312 -132 0
-323 131 311 0
323 -131 0
323 -311 0
-324 132 312 0
324 -132 0
324 -312 0
-323 -143 0
-324 -144 0
-335 143 323 0
335 -143 0
335 -323 0
-336 144 324 0
336 -144 0
336 -324 0
-335 -155 0
-336 -156 0
-347 155 335 0
347 -155 0
347 -335 0
-348 156 336 0
348 -156 0
348 -336 0
-347 -167 0
-348 -168 0
-359 167 347 0
359 -167 0
359 -347 0
-360 168 348 0
360 -168 0
360 -348 0
-359 -179 0
-360 -180 0
359 0
360 0
